Route #1: 91 89 88 85 84 82 83 86 87 90
Route #2: 98 96 95 94 92 93 97 100 99 2
Route #3: 81 78 76 71 70 73 77 79 80 63
Route #4: 5 3 7 8 11 9 6 4 1 75
Route #5: 69 66 68 64 61 72 74 62 65 67
Route #6: 32 33 34 36 39 38 37 35 31 50
Route #7: 47 49 52 51 48 46 45 44 42 43
Route #8: 23 13 17 18 19 15 16 14 12 10
Route #9: 20 24 25 27 29 30 28 26 22 21
Route #10: 41 40 59 60 58 56 53 54 55 57
Cost 826.773332